Prototype/modified-results/vertexcover2-1/vertexcover207.dat-s
"Vertexcover tests with graphs with 20 vertices and 1-190 edges"
35
1
{21}
1 0 0 0 0 0 0 0 0 0 0 0 0 0 0 0 0 0 0 0 0 2 2 2 2 2 2 2 2 2 2 2 2 2 2
0 1 1 1 -1.0
0 1 2 2 -1.0
0 1 3 3 -1.0
0 1 4 4 -1.0
0 1 5 5 -1.0
0 1 6 6 -1.0
0 1 7 7 -1.0
0 1 8 8 -1.0
0 1 9 9 -1.0
0 1 10 10 -1.0
0 1 11 11 -1.0
0 1 12 12 -1.0
0 1 13 13 -1.0
0 1 14 14 -1.0
0 1 15 15 -1.0
0 1 16 16 -1.0
0 1 17 17 -1.0
0 1 18 18 -1.0
0 1 19 19 -1.0
0 1 20 20 -1.0
0 1 21 21 -1.0
1 1 1 1 1.0
2 1 1 2 -1.0
2 1 2 2 2.0
3 1 1 3 -1.0
3 1 3 3 2.0
4 1 1 4 -1.0
4 1 4 4 2.0
5 1 1 5 -1.0
5 1 5 5 2.0
6 1 1 6 -1.0
6 1 6 6 2.0
7 1 1 7 -1.0
7 1 7 7 2.0
8 1 1 8 -1.0
8 1 8 8 2.0
9 1 1 9 -1.0
9 1 9 9 2.0
10 1 1 10 -1.0
10 1 10 10 2.0
11 1 1 11 -1.0
11 1 11 11 2.0
12 1 1 12 -1.0
12 1 12 12 2.0
13 1 1 13 -1.0
13 1 13 13 2.0
14 1 1 14 -1.0
14 1 14 14 2.0
15 1 1 15 -1.0
15 1 15 15 2.0
16 1 1 16 -1.0
16 1 16 16 2.0
17 1 1 17 -1.0
17 1 17 17 2.0
18 1 1 18 -1.0
18 1 18 18 2.0
19 1 1 19 -1.0
19 1 19 19 2.0
20 1 1 20 -1.0
20 1 20 20 2.0
21 1 1 21 -1.0
21 1 21 21 2.0
22 1 1 2 1.0
22 1 1 13 1.0
22 1 2 13 -1.0
23 1 1 2 1.0
23 1 1 20 1.0
23 1 2 20 -1.0
24 1 1 3 1.0
24 1 1 17 1.0
24 1 3 17 -1.0
25 1 1 4 1.0
25 1 1 5 1.0
25 1 4 5 -1.0
26 1 1 5 1.0
26 1 1 9 1.0
26 1 5 9 -1.0
27 1 1 6 1.0
27 1 1 8 1.0
27 1 6 8 -1.0
28 1 1 7 1.0
28 1 1 10 1.0
28 1 7 10 -1.0
29 1 1 8 1.0
29 1 1 9 1.0
29 1 8 9 -1.0
30 1 1 9 1.0
30 1 1 13 1.0
30 1 9 13 -1.0
31 1 1 12 1.0
31 1 1 20 1.0
31 1 12 20 -1.0
32 1 1 13 1.0
32 1 1 20 1.0
32 1 13 20 -1.0
33 1 1 13 1.0
33 1 1 21 1.0
33 1 13 21 -1.0
34 1 1 16 1.0
34 1 1 19 1.0
34 1 16 19 -1.0
35 1 1 19 1.0
35 1 1 20 1.0
35 1 19 20 -1.0
