Prototype/modified-results/vertexcover2-1/vertexcover207.dat-s.res
SDPA start at [Thu Jul 15 21:27:34 2021]
param  is ./param.sdpa 
data   is G:\Research\PhysarumSDPSolver\SDPA\testSet\vertexcover2\vertexcover207.dat-s  : sparse
"Vertexcover tests with graphs with 20 vertices and 1-190 edges"
out    is G:\Research\PhysarumSDPSolver\SDPA\testSet\vertexcover2\vertexcover207.dat-s.res
NumThreads  is set as 1
Schur computation : DENSE 
   mu      thetaP  thetaD  objP      objD      alphaP  alphaD  beta 
 0 1.0e+004 1.0e+000 1.0e+000 -0.00e+000 -2.10e+003 1.0e+000 7.5e-001 2.00e-001
 1 3.3e+003 0.0e+000 2.5e-001 +1.02e+003 -6.66e+002 8.4e-001 8.4e-001 2.00e-001
 2 7.7e+002 7.2e-017 4.1e-002 +1.32e+003 -1.18e+002 8.1e-001 8.1e-001 2.00e-001
 3 2.3e+002 1.4e-016 7.9e-003 +1.40e+003 -3.25e+001 8.6e-001 7.7e-001 2.00e-001
 4 8.0e+001 2.9e-016 1.8e-003 +8.66e+002 -1.72e+001 7.9e-001 8.5e-001 2.00e-001
 5 2.7e+001 2.9e-016 2.7e-004 +4.64e+002 -1.41e+001 1.0e+000 1.0e+000 2.00e-001
 6 5.3e+000 4.3e-016 2.3e-016 +9.75e+001 -1.37e+001 8.9e-001 2.8e+000 1.00e-001
 7 1.0e+000 5.0e-016 1.6e-015 +8.77e+000 -1.25e+001 7.1e-001 9.1e-001 1.00e-001
 8 3.5e-001 4.7e-016 4.3e-016 -4.14e+000 -1.15e+001 6.1e-001 6.6e-001 1.00e-001
 9 1.5e-001 4.7e-016 3.8e-016 -6.98e+000 -1.02e+001 9.3e-001 7.4e-001 1.00e-001
10 4.4e-002 4.7e-016 1.5e-016 -7.72e+000 -8.64e+000 9.9e-001 9.3e-001 1.00e-001
11 6.3e-003 4.6e-016 3.4e-017 -7.96e+000 -8.10e+000 9.4e-001 9.4e-001 1.00e-001
12 9.8e-004 4.6e-016 7.8e-018 -8.00e+000 -8.02e+000 9.5e-001 9.5e-001 1.00e-001
13 1.4e-004 4.6e-016 1.6e-016 -8.00e+000 -8.00e+000 9.6e-001 9.8e-001 1.00e-001
14 1.7e-005 4.6e-016 9.7e-016 -8.00e+000 -8.00e+000 9.8e-001 1.0e+000 1.00e-001
15 1.9e-006 4.6e-016 2.0e-014 -8.00e+000 -8.00e+000 9.9e-001 1.0e+000 1.00e-001
16 1.9e-007 4.6e-016 6.5e-014 -8.00e+000 -8.00e+000 9.9e-001 1.0e+000 1.00e-001
17 1.9e-008 4.6e-016 1.7e-012 -8.00e+000 -8.00e+000 9.9e-001 1.0e+000 1.00e-001

phase.value  = pdOPT     
   Iteration = 17
          mu = +1.8986366045496760e-008
relative gap = +4.9948177874821589e-008
        gap  = +3.9958542874529712e-007
     digits  = +7.3014803503477941e+000
objValPrimal = -7.9999999152610206e+000
objValDual   = -8.0000003148464494e+000
p.feas.error = +4.5741188614556449e-014
d.feas.error = +3.4819924721318785e-010
total time   = 0.074272
** Paramters **
maxIteration = 100
epsilonStar  = +9.9999999999999995e-008
lambdaStar   = +1.0000000000000000e+002
omegaStar    = +2.0000000000000000e+000
lowerBound   = -1.0000000000000000e+005
upperBound   = +1.0000000000000000e+005
betaStar     = +1.0000000000000001e-001
betaBar      = +2.0000000000000001e-001
gammaStar    = +9.0000000000000002e-001
epsilonDash  = +9.9999999999999995e-008
xPrint       = %+8.3e 
XPrint       = %+8.3e 
YPrint       = %+8.3e 
infPrint     = %+10.16e 

                         Time(sec)  Ratio(% : MainLoop) 
 Predictor time  =       0.022408,  30.581107
 Corrector time  =       0.012970,  17.700685
 Make bMat time  =       0.003992,  5.448044
 Make bDia time  =       0.000000,  0.000000
 Make bF1  time  =       0.000000,  0.000000
 Make bF2  time  =       0.000000,  0.000000
 Make bF3  time  =       0.000997,  1.360646
 Make bPRE time  =       0.000000,  0.000000
 Make rMat time  =       0.002122,  2.895979
 Make gVec Mul   =       0.000000,  0.000000
 Make gVec time  =       0.000997,  1.360646
 Cholesky bMat   =       0.004325,  5.902503
 Ste Pre time    =       0.000000,  0.000000
 Ste Cor time    =       0.033905,  46.271529
 solve           =       0.000000,  0.000000
 sumDz           =       0.000000,  0.000000
 makedX          =       0.003991,  5.446680
 symmetriseDx    =       0.019951,  27.227939
 makedXdZ        =       0.023942,  32.674619
 xMatTime        =       0.000998,  1.362011
 zMatTime        =       0.002993,  4.084669
 invzMatTime     =       0.000000,  0.000000
 xMatzMatTime    =       0.000000,  0.000000
 EigxMatTime     =       0.016951,  23.133717
 EigzMatTime     =       0.016954,  23.137812
 EigxMatzMatTime =       0.000000,  0.000000
 updateRes       =       0.000000,  0.000000
 EigTime         =       0.033905,  46.271529
 sub_total_bMat  =       0.069282,  94.551956
 Main Loop       =       0.073274,  100.000000
 File Check      =       0.000000,  0.000000
 File Change     =       0.000000,  0.000000
 File Read       =       0.000998,  1.362011
 Total           =       0.074272,  101.362011

xVec = 
{+1.481e+001,-3.950e-007,-2.878e-007,-3.511e-007,+5.764e-001,-3.512e-007,-2.875e-007,+5.763e-001,-3.260e-007,-2.875e-007,-3.111e-007,-3.475e-007,+1.353e+000,-3.111e-007,-3.111e-007,-1.286e-007,-2.878e-007,-3.111e-007,-4.654e-007,+9.436e-001,-3.319e-007,-9.722e-001,-9.667e-001,-1.000e+000,-9.782e-001,-5.983e-001,-9.781e-001,-1.000e+000,-5.981e-001,-4.009e-001,-9.768e-001,-9.553e-001,-9.802e-001,-1.000e+000,-3.584e-007}
xMat = 
{
{ {+1.581e+001,-1.939e+000,-1.000e+000,-9.782e-001,-2.153e+000,-9.781e-001,-1.000e+000,-2.153e+000,-1.597e+000,-1.000e+000,+3.111e-007,-9.768e-001,-4.662e+000,+3.111e-007,+3.111e-007,-1.000e+000,-1.000e+000,+3.111e-007,-1.000e+000,-3.842e+000,-9.802e-001 },
  {-1.939e+000,+1.000e+000,+0.000e+000,+0.000e+000,+0.000e+000,+0.000e+000,+0.000e+000,+0.000e+000,+0.000e+000,+0.000e+000,+0.000e+000,+0.000e+000,+9.722e-001,+0.000e+000,+0.000e+000,+0.000e+000,+0.000e+000,+0.000e+000,+0.000e+000,+9.667e-001,+0.000e+000 },
  {-1.000e+000,+0.000e+000,+1.000e+000,+0.000e+000,+0.000e+000,+0.000e+000,+0.000e+000,+0.000e+000,+0.000e+000,+0.000e+000,+0.000e+000,+0.000e+000,+0.000e+000,+0.000e+000,+0.000e+000,+0.000e+000,+1.000e+000,+0.000e+000,+0.000e+000,+0.000e+000,+0.000e+000 },
  {-9.782e-001,+0.000e+000,+0.000e+000,+1.000e+000,+9.782e-001,+0.000e+000,+0.000e+000,+0.000e+000,+0.000e+000,+0.000e+000,+0.000e+000,+0.000e+000,+0.000e+000,+0.000e+000,+0.000e+000,+0.000e+000,+0.000e+000,+0.000e+000,+0.000e+000,+0.000e+000,+0.000e+000 },
  {-2.153e+000,+0.000e+000,+0.000e+000,+9.782e-001,+2.153e+000,+0.000e+000,+0.000e+000,+0.000e+000,+5.983e-001,+0.000e+000,+0.000e+000,+0.000e+000,+0.000e+000,+0.000e+000,+0.000e+000,+0.000e+000,+0.000e+000,+0.000e+000,+0.000e+000,+0.000e+000,+0.000e+000 },
  {-9.781e-001,+0.000e+000,+0.000e+000,+0.000e+000,+0.000e+000,+1.000e+000,+0.000e+000,+9.781e-001,+0.000e+000,+0.000e+000,+0.000e+000,+0.000e+000,+0.000e+000,+0.000e+000,+0.000e+000,+0.000e+000,+0.000e+000,+0.000e+000,+0.000e+000,+0.000e+000,+0.000e+000 },
  {-1.000e+000,+0.000e+000,+0.000e+000,+0.000e+000,+0.000e+000,+0.000e+000,+1.000e+000,+0.000e+000,+0.000e+000,+1.000e+000,+0.000e+000,+0.000e+000,+0.000e+000,+0.000e+000,+0.000e+000,+0.000e+000,+0.000e+000,+0.000e+000,+0.000e+000,+0.000e+000,+0.000e+000 },
  {-2.153e+000,+0.000e+000,+0.000e+000,+0.000e+000,+0.000e+000,+9.781e-001,+0.000e+000,+2.153e+000,+5.981e-001,+0.000e+000,+0.000e+000,+0.000e+000,+0.000e+000,+0.000e+000,+0.000e+000,+0.000e+000,+0.000e+000,+0.000e+000,+0.000e+000,+0.000e+000,+0.000e+000 },
  {-1.597e+000,+0.000e+000,+0.000e+000,+0.000e+000,+5.983e-001,+0.000e+000,+0.000e+000,+5.981e-001,+1.000e+000,+0.000e+000,+0.000e+000,+0.000e+000,+4.009e-001,+0.000e+000,+0.000e+000,+0.000e+000,+0.000e+000,+0.000e+000,+0.000e+000,+0.000e+000,+0.000e+000 },
  {-1.000e+000,+0.000e+000,+0.000e+000,+0.000e+000,+0.000e+000,+0.000e+000,+1.000e+000,+0.000e+000,+0.000e+000,+1.000e+000,+0.000e+000,+0.000e+000,+0.000e+000,+0.000e+000,+0.000e+000,+0.000e+000,+0.000e+000,+0.000e+000,+0.000e+000,+0.000e+000,+0.000e+000 },
  {+3.111e-007,+0.000e+000,+0.000e+000,+0.000e+000,+0.000e+000,+0.000e+000,+0.000e+000,+0.000e+000,+0.000e+000,+0.000e+000,+1.000e+000,+0.000e+000,+0.000e+000,+0.000e+000,+0.000e+000,+0.000e+000,+0.000e+000,+0.000e+000,+0.000e+000,+0.000e+000,+0.000e+000 },
  {-9.768e-001,+0.000e+000,+0.000e+000,+0.000e+000,+0.000e+000,+0.000e+000,+0.000e+000,+0.000e+000,+0.000e+000,+0.000e+000,+0.000e+000,+1.000e+000,+0.000e+000,+0.000e+000,+0.000e+000,+0.000e+000,+0.000e+000,+0.000e+000,+0.000e+000,+9.768e-001,+0.000e+000 },
  {-4.662e+000,+9.722e-001,+0.000e+000,+0.000e+000,+0.000e+000,+0.000e+000,+0.000e+000,+0.000e+000,+4.009e-001,+0.000e+000,+0.000e+000,+0.000e+000,+3.707e+000,+0.000e+000,+0.000e+000,+0.000e+000,+0.000e+000,+0.000e+000,+0.000e+000,+9.553e-001,+9.802e-001 },
  {+3.111e-007,+0.000e+000,+0.000e+000,+0.000e+000,+0.000e+000,+0.000e+000,+0.000e+000,+0.000e+000,+0.000e+000,+0.000e+000,+0.000e+000,+0.000e+000,+0.000e+000,+1.000e+000,+0.000e+000,+0.000e+000,+0.000e+000,+0.000e+000,+0.000e+000,+0.000e+000,+0.000e+000 },
  {+3.111e-007,+0.000e+000,+0.000e+000,+0.000e+000,+0.000e+000,+0.000e+000,+0.000e+000,+0.000e+000,+0.000e+000,+0.000e+000,+0.000e+000,+0.000e+000,+0.000e+000,+0.000e+000,+1.000e+000,+0.000e+000,+0.000e+000,+0.000e+000,+0.000e+000,+0.000e+000,+0.000e+000 },
  {-1.000e+000,+0.000e+000,+0.000e+000,+0.000e+000,+0.000e+000,+0.000e+000,+0.000e+000,+0.000e+000,+0.000e+000,+0.000e+000,+0.000e+000,+0.000e+000,+0.000e+000,+0.000e+000,+0.000e+000,+1.000e+000,+0.000e+000,+0.000e+000,+1.000e+000,+0.000e+000,+0.000e+000 },
  {-1.000e+000,+0.000e+000,+1.000e+000,+0.000e+000,+0.000e+000,+0.000e+000,+0.000e+000,+0.000e+000,+0.000e+000,+0.000e+000,+0.000e+000,+0.000e+000,+0.000e+000,+0.000e+000,+0.000e+000,+0.000e+000,+1.000e+000,+0.000e+000,+0.000e+000,+0.000e+000,+0.000e+000 },
  {+3.111e-007,+0.000e+000,+0.000e+000,+0.000e+000,+0.000e+000,+0.000e+000,+0.000e+000,+0.000e+000,+0.000e+000,+0.000e+000,+0.000e+000,+0.000e+000,+0.000e+000,+0.000e+000,+0.000e+000,+0.000e+000,+0.000e+000,+1.000e+000,+0.000e+000,+0.000e+000,+0.000e+000 },
  {-1.000e+000,+0.000e+000,+0.000e+000,+0.000e+000,+0.000e+000,+0.000e+000,+0.000e+000,+0.000e+000,+0.000e+000,+0.000e+000,+0.000e+000,+0.000e+000,+0.000e+000,+0.000e+000,+0.000e+000,+1.000e+000,+0.000e+000,+0.000e+000,+1.000e+000,+3.584e-007,+0.000e+000 },
  {-3.842e+000,+9.667e-001,+0.000e+000,+0.000e+000,+0.000e+000,+0.000e+000,+0.000e+000,+0.000e+000,+0.000e+000,+0.000e+000,+0.000e+000,+9.768e-001,+9.553e-001,+0.000e+000,+0.000e+000,+0.000e+000,+0.000e+000,+0.000e+000,+3.584e-007,+2.887e+000,+0.000e+000 },
  {-9.802e-001,+0.000e+000,+0.000e+000,+0.000e+000,+0.000e+000,+0.000e+000,+0.000e+000,+0.000e+000,+0.000e+000,+0.000e+000,+0.000e+000,+0.000e+000,+9.802e-001,+0.000e+000,+0.000e+000,+0.000e+000,+0.000e+000,+0.000e+000,+0.000e+000,+0.000e+000,+1.000e+000 }   }
}
yMat = 
{
{ {+1.000e+000,+5.053e-008,+5.000e-001,+4.890e-008,+1.000e+000,+4.891e-008,+5.000e-001,+1.000e+000,+6.074e-008,+5.000e-001,+1.847e-008,+3.682e-008,+1.000e+000,+1.847e-008,+1.847e-008,+4.943e-001,+5.000e-001,+1.847e-008,+5.057e-001,+1.000e+000,+3.179e-008 },
  {+5.053e-008,+5.053e-008,+2.527e-008,+6.714e-009,+4.383e-008,+6.712e-009,+2.527e-008,+4.383e-008,+1.341e-008,+2.527e-008,-1.462e-012,+1.838e-008,+3.720e-008,-1.462e-012,-1.462e-012,+1.247e-007,+2.527e-008,-1.462e-012,-7.415e-008,+3.210e-008,+1.335e-008 },
  {+5.000e-001,+2.527e-008,+5.000e-001,+2.445e-008,+5.000e-001,+2.445e-008,+2.500e-001,+5.000e-001,+3.037e-008,+2.500e-001,+9.234e-009,+1.841e-008,+5.000e-001,+9.234e-009,+9.234e-009,+2.472e-001,+1.838e-008,+9.234e-009,+2.528e-001,+5.000e-001,+1.590e-008 },
  {+4.890e-008,+6.714e-009,+2.445e-008,+4.890e-008,+1.852e-008,+1.523e-008,+2.445e-008,+3.369e-008,+3.042e-008,+2.445e-008,-1.251e-012,-7.170e-011,+4.221e-008,-1.251e-012,-1.251e-012,+1.591e-008,+2.445e-008,-1.251e-012,+3.299e-008,+4.897e-008,+6.701e-009 },
  {+1.000e+000,+4.383e-008,+5.000e-001,+1.852e-008,+1.000e+000,+3.371e-008,+5.000e-001,+1.000e+000,+3.037e-008,+5.000e-001,+1.847e-008,+3.689e-008,+1.000e+000,+1.847e-008,+1.847e-008,+4.943e-001,+5.000e-001,+1.847e-008,+5.057e-001,+1.000e+000,+2.510e-008 },
  {+4.891e-008,+6.712e-009,+2.445e-008,+1.523e-008,+3.371e-008,+4.891e-008,+2.445e-008,+1.851e-008,+3.041e-008,+2.445e-008,-1.250e-012,-7.168e-011,+4.222e-008,-1.250e-012,-1.250e-012,+1.590e-008,+2.445e-008,-1.250e-012,+3.301e-008,+4.898e-008,+6.699e-009 },
  {+5.000e-001,+2.527e-008,+2.500e-001,+2.445e-008,+5.000e-001,+2.445e-008,+5.000e-001,+5.000e-001,+3.037e-008,+1.855e-008,+9.234e-009,+1.841e-008,+5.000e-001,+9.234e-009,+9.234e-009,+2.472e-001,+2.500e-001,+9.234e-009,+2.528e-001,+5.000e-001,+1.590e-008 },
  {+1.000e+000,+4.383e-008,+5.000e-001,+3.369e-008,+1.000e+000,+1.851e-008,+5.000e-001,+1.000e+000,+3.037e-008,+5.000e-001,+1.847e-008,+3.689e-008,+1.000e+000,+1.847e-008,+1.847e-008,+4.943e-001,+5.000e-001,+1.847e-008,+5.057e-001,+1.000e+000,+2.510e-008 },
  {+6.074e-008,+1.341e-008,+3.037e-008,+3.042e-008,+3.037e-008,+3.041e-008,+3.037e-008,+3.037e-008,+6.074e-008,+3.037e-008,-1.536e-012,-1.427e-010,+4.737e-008,-1.536e-012,-1.536e-012,+1.199e-008,+3.037e-008,-1.536e-012,+4.875e-008,+6.088e-008,+1.338e-008 },
  {+5.000e-001,+2.527e-008,+2.500e-001,+2.445e-008,+5.000e-001,+2.445e-008,+1.855e-008,+5.000e-001,+3.037e-008,+5.000e-001,+9.234e-009,+1.841e-008,+5.000e-001,+9.234e-009,+9.234e-009,+2.472e-001,+2.500e-001,+9.234e-009,+2.528e-001,+5.000e-001,+1.590e-008 },
  {+1.847e-008,-1.462e-012,+9.234e-009,-1.251e-012,+1.847e-008,-1.250e-012,+9.234e-009,+1.847e-008,-1.536e-012,+9.234e-009,+1.847e-008,-9.930e-013,+1.847e-008,-4.363e-013,-4.363e-013,+6.563e-008,+9.234e-009,-4.363e-013,-4.716e-008,+1.847e-008,-8.601e-013 },
  {+3.682e-008,+1.838e-008,+1.841e-008,-7.170e-011,+3.689e-008,-7.168e-011,+1.841e-008,+3.689e-008,-1.427e-010,+1.841e-008,-9.930e-013,+3.682e-008,+3.696e-008,-9.930e-013,-9.930e-013,+8.428e-008,+1.841e-008,-9.930e-013,-4.746e-008,+1.841e-008,-1.393e-010 },
  {+1.000e+000,+3.720e-008,+5.000e-001,+4.221e-008,+1.000e+000,+4.222e-008,+5.000e-001,+1.000e+000,+4.737e-008,+5.000e-001,+1.847e-008,+3.696e-008,+1.000e+000,+1.847e-008,+1.847e-008,+4.943e-001,+5.000e-001,+1.847e-008,+5.057e-001,+1.000e+000,+1.849e-008 },
  {+1.847e-008,-1.462e-012,+9.234e-009,-1.251e-012,+1.847e-008,-1.250e-012,+9.234e-009,+1.847e-008,-1.536e-012,+9.234e-009,-4.363e-013,-9.930e-013,+1.847e-008,+1.847e-008,-4.363e-013,+6.563e-008,+9.234e-009,-4.363e-013,-4.716e-008,+1.847e-008,-8.601e-013 },
  {+1.847e-008,-1.462e-012,+9.234e-009,-1.251e-012,+1.847e-008,-1.250e-012,+9.234e-009,+1.847e-008,-1.536e-012,+9.234e-009,-4.363e-013,-9.930e-013,+1.847e-008,-4.363e-013,+1.847e-008,+6.563e-008,+9.234e-009,-4.363e-013,-4.716e-008,+1.847e-008,-8.601e-013 },
  {+4.943e-001,+1.247e-007,+2.472e-001,+1.591e-008,+4.943e-001,+1.590e-008,+2.472e-001,+4.943e-001,+1.199e-008,+2.472e-001,+6.563e-008,+8.428e-008,+4.943e-001,+6.563e-008,+6.563e-008,+4.943e-001,+2.472e-001,+6.563e-008,+1.846e-008,+4.943e-001,+7.077e-008 },
  {+5.000e-001,+2.527e-008,+1.838e-008,+2.445e-008,+5.000e-001,+2.445e-008,+2.500e-001,+5.000e-001,+3.037e-008,+2.500e-001,+9.234e-009,+1.841e-008,+5.000e-001,+9.234e-009,+9.234e-009,+2.472e-001,+5.000e-001,+9.234e-009,+2.528e-001,+5.000e-001,+1.590e-008 },
  {+1.847e-008,-1.462e-012,+9.234e-009,-1.251e-012,+1.847e-008,-1.250e-012,+9.234e-009,+1.847e-008,-1.536e-012,+9.234e-009,-4.363e-013,-9.930e-013,+1.847e-008,-4.363e-013,-4.363e-013,+6.563e-008,+9.234e-009,+1.847e-008,-4.716e-008,+1.847e-008,-8.601e-013 },
  {+5.057e-001,-7.415e-008,+2.528e-001,+3.299e-008,+5.057e-001,+3.301e-008,+2.528e-001,+5.057e-001,+4.875e-008,+2.528e-001,-4.716e-008,-4.746e-008,+5.057e-001,-4.716e-008,-4.716e-008,+1.846e-008,+2.528e-001,-4.716e-008,+5.057e-001,+5.057e-001,-3.898e-008 },
  {+1.000e+000,+3.210e-008,+5.000e-001,+4.897e-008,+1.000e+000,+4.898e-008,+5.000e-001,+1.000e+000,+6.088e-008,+5.000e-001,+1.847e-008,+1.841e-008,+1.000e+000,+1.847e-008,+1.847e-008,+4.943e-001,+5.000e-001,+1.847e-008,+5.057e-001,+1.000e+000,+3.193e-008 },
  {+3.179e-008,+1.335e-008,+1.590e-008,+6.701e-009,+2.510e-008,+6.699e-009,+1.590e-008,+2.510e-008,+1.338e-008,+1.590e-008,-8.601e-013,-1.393e-010,+1.849e-008,-8.601e-013,-8.601e-013,+7.077e-008,+1.590e-008,-8.601e-013,-3.898e-008,+3.193e-008,+3.179e-008 }   }
}
    main loop time = 0.073274
        total time = 0.074272
  file  check time = 0.000000
  file change time = 0.000000
  file   read time = 0.000998
SDPA end at [Thu Jul 15 21:27:34 2021]
ALL TIME = 0.076869
